p cnf 43 147
1 2 -3 0
-1 -2 -3 0
1 -2 3 0
-1 2 3 0
3 -4 -5 0
-3 4 -5 0
3 4 5 0
-3 -4 5 0
-7 5 0
-7 6 0
-5 -6 7 0
7 5 -8 0
-7 -5 -8 0
7 -5 8 0
-7 5 8 0
-4 -9 -10 0
4 9 -10 0
-4 9 10 0
4 -9 10 0
-5 -1 -11 0
5 1 -11 0
-5 1 11 0
5 -1 11 0
-10 11 -12 0
10 -11 -12 0
-10 -11 12 0
10 11 12 0
-14 -9 0
-14 -13 0
9 13 14 0
15 14 0
15 2 0
-14 -2 -15 0
18 -16 0
18 -17 0
16 17 -18 0
19 15 0
19 -18 0
-15 18 -19 0
-20 19 0
-20 1 0
-19 -1 20 0
-21 -12 0
-21 -20 0
12 20 21 0
-23 -22 0
-23 -19 0
22 19 23 0
24 -2 0
24 22 0
2 -22 -24 0
25 -22 0
25 24 0
22 -24 -25 0
-26 -13 0
-26 25 0
13 -25 26 0
26 -17 -27 0
-26 17 -27 0
26 17 27 0
-26 -17 27 0
29 -28 0
29 24 0
28 -24 -29 0
27 29 -30 0
-27 -29 -30 0
27 -29 30 0
-27 29 30 0
-31 -23 0
-31 30 0
23 -30 31 0
-32 -21 0
-32 31 0
21 -31 32 0
33 5 0
33 -2 0
-5 2 -33 0
-10 -25 -34 0
10 25 -34 0
-10 25 34 0
10 -25 34 0
35 -33 0
35 34 0
33 -34 -35 0
-36 -35 0
-36 13 0
35 -13 36 0
-37 22 0
-37 24 0
-22 -24 37 0
38 -36 0
38 -37 0
36 37 -38 0
-34 -26 -39 0
34 26 -39 0
-34 26 39 0
34 -26 39 0
-39 4 -40 0
39 -4 -40 0
-39 -4 40 0
39 4 40 0
-38 -40 -41 0
38 40 -41 0
-38 40 41 0
38 -40 41 0
32 -41 -42 0
-32 41 -42 0
32 41 42 0
-32 -41 42 0
-43 8 0
-43 42 0
-8 -42 43 0
-27 18 -5 0
14 -16 0
34 6 -4 0
-4 -9 0
-30 -29 -26 -34 19 0
3 -30 -6 33 -38 -26 0
19 -20 -43 -7 -41 0
19 33 -9 -37 35 0
-3 42 -43 -19 -28 0
-22 -29 -9 0
-3 -12 0
-14 -27 0
36 -25 -11 -34 -9 0
-10 -27 39 0
-43 34 0
26 39 12 -34 0
-19 -18 -10 -41 -42 0
28 11 -21 18 0
-6 -27 -7 -30 0
34 -30 -36 -5 0
36 40 -24 0
6 -1 7 12 40 26 0
25 -11 -16 -40 0
-7 -35 34 26 0
10 1 -18 -35 0
11 30 0
-34 -4 -2 1 10 0
37 -17 8 0
31 -2 43 0
-23 -39 -42 -8 6 16 0
-40 -31 -23 -16 0
4 -9 0
36 22 0
41 -6 10 -34 -23 0
43 0
